N = 16;
M = 36;
Edge_Start = [1, 1, 2, 3, 3, 4, 5, 7, 7, 8, 9, 9, 10, 11, 12, 13, 14, 15, 2, 6, 3, 4, 8, 5, 10, 8, 12, 9, 10, 14, 11, 16, 13, 14, 15, 16];
Edge_End = [2, 6, 3, 4, 8, 5, 10, 8, 12, 9, 10, 14, 11, 16, 13, 14, 15, 16, 1, 1, 2, 3, 3, 4, 5, 7, 7, 8, 9, 9, 10, 11, 12, 13, 14, 15];
L = [14, 16, 11, 8, 18, 4, 16, 16, 7, 19, 12, 19, 15, 16, 16, 3, 17, 2, 14, 16, 11, 8, 18, 4, 16, 16, 7, 19, 12, 19, 15, 16, 16, 3, 17, 2];
T = [14, 10, 13, 7, 20, 6, 23, 3, 10, 13, 8, 7, 5, 9, 18, 6, 13, 7, 14, 10, 13, 7, 20, 6, 23, 3, 10, 13, 8, 7, 5, 9, 18, 6, 13, 7];
Lower_Bound = [0, 14, 27, 34, 40, 10, 50, 47, 60, 63, 68, 60, 73, 67, 80, 77];
Upper_Bound = [0, 14, 27, 34, 40, 10, 50, 47, 60, 63, 68, 60, 73, 67, 80, 77];
Start = 1;
End = 16;
Time = 77;
